
Gurobi 9.1.0 (win64) logging started Fri Jun 11 11:32:22 2021


Gurobi 9.1.0 (win64) logging started Fri Jun 11 11:32:32 2021

Gurobi Optimizer version 9.1.0 build v9.1.0rc0 (win64)
Thread count: 4 physical cores, 8 logical processors, using up to 8 threads
Optimize a model with 74298 rows, 25295 columns and 213064 nonzeros
Model fingerprint: 0xe71b7218
Coefficient statistics:
  Matrix range     [3e-04, 1e+00]
  Objective range  [1e+01, 4e+05]
  Bounds range     [1e+03, 8e+06]
  RHS range        [6e+00, 1e+09]
Presolve removed 6388 rows and 29107 columns
Presolve time: 0.14s
Presolved: 18907 rows, 45191 columns, 156090 nonzeros
Ordering time: 0.43s

Barrier statistics:
 Dense cols : 2
 Free vars  : 1932
 AA' NZ     : 2.070e+05
 Factor NZ  : 1.591e+06 (roughly 40 MBytes of memory)
 Factor Ops : 2.633e+08 (less than 1 second per iteration)
 Threads    : 4

                  Objective                Residual
Iter       Primal          Dual         Primal    Dual     Compl     Time
   0  -6.16133748e+15  1.46874000e+10  3.25e+07 1.50e+05  1.82e+12     1s
   1  -1.48878136e+15  3.09699197e+14  6.05e+06 3.23e+06  3.10e+11     1s
   2  -7.41343754e+14  3.71811378e+14  2.69e+06 5.84e+05  1.27e+11     1s
   3  -1.38297509e+14  3.44274688e+14  2.49e+05 1.34e+04  1.73e+10     1s
   4  -8.19297334e+12  1.24227876e+14  1.19e+04 1.22e+02  2.48e+09     1s
   5  -2.78564764e+12  1.76904167e+13  4.72e+03 4.45e+00  3.65e+08     1s
   6  -1.07216196e+12  6.99465049e+12  2.28e+03 8.71e+00  1.40e+08     1s
   7  -4.04613284e+11  3.15772961e+12  4.75e+02 3.79e+00  6.06e+07     1s
   8  -4.57958463e+10  5.81636350e+11  2.77e+01 6.01e-01  1.06e+07     1s
   9   2.73948373e+09  1.35062976e+11  1.67e+00 1.52e-01  2.24e+06     2s
  10   2.18745509e+10  1.03163032e+11  9.31e-01 1.04e-01  1.38e+06     2s
  11   2.73815876e+10  8.16968391e+10  7.14e-01 9.40e-02  9.20e+05     2s
  12   3.38787729e+10  6.90416249e+10  4.54e-01 6.14e-02  5.96e+05     2s
  13   3.68970918e+10  5.42978325e+10  3.16e-01 2.43e-02  2.95e+05     2s
  14   3.87293826e+10  5.02256742e+10  2.19e-01 2.27e-02  1.95e+05     2s
  15   3.99507507e+10  4.81347138e+10  1.53e-01 1.99e-02  1.39e+05     2s
  16   4.04158696e+10  4.67923346e+10  1.28e-01 1.83e-02  1.08e+05     2s
  17   4.06631404e+10  4.60321995e+10  1.15e-01 1.50e-02  9.09e+04     2s
  18   4.08491801e+10  4.57258540e+10  1.04e-01 1.37e-02  8.26e+04     3s
  19   4.10540894e+10  4.53846985e+10  9.20e-02 1.33e-02  7.34e+04     3s
  20   4.11237222e+10  4.51275612e+10  8.80e-02 1.21e-02  6.78e+04     3s
  21   4.12721559e+10  4.46022441e+10  7.94e-02 9.67e-03  5.64e+04     3s
  22   4.14402804e+10  4.44603816e+10  6.96e-02 9.70e-03  5.12e+04     3s
  23   4.15750987e+10  4.41759955e+10  6.18e-02 8.29e-03  4.41e+04     3s
  24   4.16675256e+10  4.38865387e+10  5.72e-02 7.51e-03  3.76e+04     4s
  25   4.17769231e+10  4.37772291e+10  5.06e-02 6.91e-03  3.39e+04     4s
  26   4.18364801e+10  4.36648958e+10  4.69e-02 6.28e-03  3.10e+04     4s
  27   4.18665275e+10  4.36552758e+10  4.51e-02 6.28e-03  3.03e+04     4s
  28   4.19546266e+10  4.35757612e+10  3.98e-02 6.23e-03  2.75e+04     4s
  29   4.20222401e+10  4.34485609e+10  3.57e-02 5.44e-03  2.42e+04     4s
  30   4.21386144e+10  4.33777911e+10  2.89e-02 5.36e-03  2.10e+04     4s
  31   4.21784596e+10  4.31937262e+10  2.69e-02 4.05e-03  1.72e+04     5s
  32   4.22539362e+10  4.30955713e+10  2.27e-02 3.84e-03  1.43e+04     5s
  33   4.22666191e+10  4.30525292e+10  2.19e-02 3.50e-03  1.33e+04     5s
  34   4.23407140e+10  4.29792112e+10  1.74e-02 3.14e-03  1.08e+04     5s
  35   4.23602072e+10  4.29115361e+10  1.61e-02 3.04e-03  9.34e+03     5s
  36   4.23763294e+10  4.28766679e+10  1.49e-02 3.90e-03  8.48e+03     5s
  37   4.24034687e+10  4.28436552e+10  1.33e-02 4.11e-03  7.46e+03     5s
  38   4.24106088e+10  4.28139700e+10  1.28e-02 4.34e-03  6.83e+03     5s
  39   4.24332728e+10  4.27749106e+10  1.14e-02 4.50e-03  5.79e+03     6s
  40   4.24622459e+10  4.27483907e+10  9.47e-03 4.45e-03  4.85e+03     6s
  41   4.24668398e+10  4.27380706e+10  9.13e-03 4.37e-03  4.60e+03     6s
  42   4.24806929e+10  4.27084629e+10  8.26e-03 4.21e-03  3.86e+03     6s
  43   4.25194459e+10  4.27021739e+10  5.69e-03 3.93e-03  3.10e+03     6s
  44   4.25412143e+10  4.26840674e+10  4.18e-03 3.57e-03  2.42e+03     6s
  45   4.25495964e+10  4.26562058e+10  3.61e-03 2.83e-03  1.81e+03     6s
  46   4.25594735e+10  4.26484592e+10  2.88e-03 2.46e-03  1.51e+03     6s
  47   4.25678125e+10  4.26458621e+10  2.29e-03 2.33e-03  1.32e+03     6s
  48   4.25706557e+10  4.26404885e+10  2.08e-03 2.05e-03  1.18e+03     6s
  49   4.25741528e+10  4.26226559e+10  1.81e-03 1.33e-03  8.22e+02     6s
  50   4.25775221e+10  4.26165159e+10  1.56e-03 1.01e-03  6.61e+02     7s
  51   4.25836720e+10  4.26116722e+10  1.14e-03 7.19e-04  4.75e+02     7s
  52   4.25880541e+10  4.26108516e+10  8.16e-04 6.69e-04  3.86e+02     7s
  53   4.25903993e+10  4.26070320e+10  6.29e-04 4.59e-04  2.82e+02     7s
  54   4.25926098e+10  4.26045049e+10  4.59e-04 3.14e-04  2.02e+02     7s
  55   4.25938659e+10  4.26034021e+10  3.66e-04 2.54e-04  1.62e+02     7s
  56   4.25962909e+10  4.26023157e+10  1.66e-04 1.98e-04  1.02e+02     7s
  57   4.25972008e+10  4.26001637e+10  9.19e-05 8.64e-05  5.03e+01     7s
  58   4.25977973e+10  4.25991188e+10  4.56e-05 3.16e-05  2.24e+01     7s
  59   4.25980622e+10  4.25987235e+10  2.51e-05 4.33e-05  1.12e+01     7s
  60   4.25983464e+10  4.25985783e+10  8.07e-06 2.31e-05  3.95e+00     8s
  61   4.25983860e+10  4.25984060e+10  2.01e-07 2.31e-06  3.42e-01     8s
  62   4.25983866e+10  4.25983870e+10  1.10e-08 2.38e-07  6.66e-03     8s
  63   4.25983866e+10  4.25983866e+10  1.14e-08 2.38e-07  6.68e-06     8s
  64   4.25983866e+10  4.25983866e+10  7.73e-07 1.19e-06  1.13e-08     8s
  65   4.25983866e+10  4.25983866e+10  1.64e-04 1.19e-06  1.13e-08     8s

Barrier solved model in 65 iterations and 8.03 seconds
Optimal objective 4.25983866e+10


User-callback calls 1167, time in user-callback 0.01 sec

Gurobi 9.1.0 (win64) logging started Fri Jun 11 11:35:51 2021


Gurobi 9.1.0 (win64) logging started Fri Jun 11 11:35:59 2021

Gurobi Optimizer version 9.1.0 build v9.1.0rc0 (win64)
Thread count: 4 physical cores, 8 logical processors, using up to 8 threads
Optimize a model with 74298 rows, 25295 columns and 213064 nonzeros
Model fingerprint: 0xe71b7218
Coefficient statistics:
  Matrix range     [3e-04, 1e+00]
  Objective range  [1e+01, 4e+05]
  Bounds range     [1e+03, 8e+06]
  RHS range        [6e+00, 1e+09]
Presolve removed 6388 rows and 29107 columns
Presolve time: 0.13s
Presolved: 18907 rows, 45191 columns, 156090 nonzeros
Ordering time: 0.41s

Barrier statistics:
 Dense cols : 2
 Free vars  : 1932
 AA' NZ     : 2.070e+05
 Factor NZ  : 1.591e+06 (roughly 40 MBytes of memory)
 Factor Ops : 2.633e+08 (less than 1 second per iteration)
 Threads    : 4

                  Objective                Residual
Iter       Primal          Dual         Primal    Dual     Compl     Time
   0  -6.16133748e+15  1.46874000e+10  3.25e+07 1.50e+05  1.82e+12     1s
   1  -1.48878136e+15  3.09699197e+14  6.05e+06 3.23e+06  3.10e+11     1s
   2  -7.41343754e+14  3.71811378e+14  2.69e+06 5.84e+05  1.27e+11     1s
   3  -1.38297509e+14  3.44274688e+14  2.49e+05 1.34e+04  1.73e+10     1s
   4  -8.19297334e+12  1.24227876e+14  1.19e+04 1.22e+02  2.48e+09     1s
   5  -2.78564764e+12  1.76904167e+13  4.72e+03 4.45e+00  3.65e+08     1s
   6  -1.07216196e+12  6.99465049e+12  2.28e+03 8.71e+00  1.40e+08     1s
   7  -4.04613284e+11  3.15772961e+12  4.75e+02 3.79e+00  6.06e+07     1s
   8  -4.57958463e+10  5.81636350e+11  2.77e+01 6.01e-01  1.06e+07     1s
   9   2.73948373e+09  1.35062976e+11  1.67e+00 1.52e-01  2.24e+06     1s
  10   2.18745509e+10  1.03163032e+11  9.31e-01 1.04e-01  1.38e+06     1s
  11   2.73815876e+10  8.16968391e+10  7.14e-01 9.40e-02  9.20e+05     2s
  12   3.38787729e+10  6.90416249e+10  4.54e-01 6.14e-02  5.96e+05     2s
  13   3.68970918e+10  5.42978325e+10  3.16e-01 2.43e-02  2.95e+05     2s
  14   3.87293826e+10  5.02256742e+10  2.19e-01 2.27e-02  1.95e+05     2s
  15   3.99507507e+10  4.81347138e+10  1.53e-01 1.99e-02  1.39e+05     2s
  16   4.04158696e+10  4.67923346e+10  1.28e-01 1.83e-02  1.08e+05     2s
  17   4.06631404e+10  4.60321995e+10  1.15e-01 1.50e-02  9.09e+04     2s
  18   4.08491801e+10  4.57258540e+10  1.04e-01 1.37e-02  8.26e+04     2s
  19   4.10540894e+10  4.53846985e+10  9.20e-02 1.33e-02  7.34e+04     3s
  20   4.11237222e+10  4.51275612e+10  8.80e-02 1.21e-02  6.78e+04     3s
  21   4.12721559e+10  4.46022441e+10  7.94e-02 9.67e-03  5.64e+04     3s
  22   4.14402804e+10  4.44603816e+10  6.96e-02 9.70e-03  5.12e+04     3s
  23   4.15750987e+10  4.41759955e+10  6.18e-02 8.29e-03  4.41e+04     3s
  24   4.16675256e+10  4.38865387e+10  5.72e-02 7.51e-03  3.76e+04     3s
  25   4.17769231e+10  4.37772291e+10  5.06e-02 6.91e-03  3.39e+04     4s
  26   4.18364801e+10  4.36648958e+10  4.69e-02 6.28e-03  3.10e+04     4s
  27   4.18665275e+10  4.36552758e+10  4.51e-02 6.28e-03  3.03e+04     4s
  28   4.19546266e+10  4.35757612e+10  3.98e-02 6.23e-03  2.75e+04     4s
  29   4.20222401e+10  4.34485609e+10  3.57e-02 5.44e-03  2.42e+04     4s
  30   4.21386144e+10  4.33777911e+10  2.89e-02 5.36e-03  2.10e+04     4s
  31   4.21784596e+10  4.31937262e+10  2.69e-02 4.05e-03  1.72e+04     4s
  32   4.22539362e+10  4.30955713e+10  2.27e-02 3.84e-03  1.43e+04     5s
  33   4.22666191e+10  4.30525292e+10  2.19e-02 3.50e-03  1.33e+04     5s
  34   4.23407140e+10  4.29792112e+10  1.74e-02 3.14e-03  1.08e+04     5s
  35   4.23602072e+10  4.29115361e+10  1.61e-02 3.04e-03  9.34e+03     5s
  36   4.23763294e+10  4.28766679e+10  1.49e-02 3.90e-03  8.48e+03     5s
  37   4.24034687e+10  4.28436552e+10  1.33e-02 4.11e-03  7.46e+03     5s
  38   4.24106088e+10  4.28139700e+10  1.28e-02 4.34e-03  6.83e+03     5s
  39   4.24332728e+10  4.27749106e+10  1.14e-02 4.50e-03  5.79e+03     5s
  40   4.24622459e+10  4.27483907e+10  9.47e-03 4.45e-03  4.85e+03     5s
  41   4.24668398e+10  4.27380706e+10  9.13e-03 4.37e-03  4.60e+03     6s
  42   4.24806929e+10  4.27084629e+10  8.26e-03 4.21e-03  3.86e+03     6s
  43   4.25194459e+10  4.27021739e+10  5.69e-03 3.93e-03  3.10e+03     6s
  44   4.25412143e+10  4.26840674e+10  4.18e-03 3.57e-03  2.42e+03     6s
  45   4.25495964e+10  4.26562058e+10  3.61e-03 2.83e-03  1.81e+03     6s
  46   4.25594735e+10  4.26484592e+10  2.88e-03 2.46e-03  1.51e+03     6s
  47   4.25678125e+10  4.26458621e+10  2.29e-03 2.33e-03  1.32e+03     6s
  48   4.25706557e+10  4.26404885e+10  2.08e-03 2.05e-03  1.18e+03     6s
  49   4.25741528e+10  4.26226559e+10  1.81e-03 1.33e-03  8.22e+02     6s
  50   4.25775221e+10  4.26165159e+10  1.56e-03 1.01e-03  6.61e+02     7s
  51   4.25836720e+10  4.26116722e+10  1.14e-03 7.19e-04  4.75e+02     7s
  52   4.25880541e+10  4.26108516e+10  8.16e-04 6.69e-04  3.86e+02     7s
  53   4.25903993e+10  4.26070320e+10  6.29e-04 4.59e-04  2.82e+02     7s
  54   4.25926098e+10  4.26045049e+10  4.59e-04 3.14e-04  2.02e+02     7s
  55   4.25938659e+10  4.26034021e+10  3.66e-04 2.54e-04  1.62e+02     7s
  56   4.25962909e+10  4.26023157e+10  1.66e-04 1.98e-04  1.02e+02     8s
  57   4.25972008e+10  4.26001637e+10  9.19e-05 8.64e-05  5.03e+01     8s
  58   4.25977973e+10  4.25991188e+10  4.56e-05 3.16e-05  2.24e+01     8s
  59   4.25980622e+10  4.25987235e+10  2.51e-05 4.33e-05  1.12e+01     8s
  60   4.25983464e+10  4.25985783e+10  8.07e-06 2.31e-05  3.95e+00     8s
  61   4.25983860e+10  4.25984060e+10  2.01e-07 2.31e-06  3.42e-01     8s
  62   4.25983866e+10  4.25983870e+10  1.10e-08 2.38e-07  6.66e-03     8s
  63   4.25983866e+10  4.25983866e+10  1.14e-08 2.38e-07  6.68e-06     8s
  64   4.25983866e+10  4.25983866e+10  7.73e-07 1.19e-06  1.13e-08     9s
  65   4.25983866e+10  4.25983866e+10  1.64e-04 1.19e-06  1.13e-08     9s

Barrier solved model in 65 iterations and 8.71 seconds
Optimal objective 4.25983866e+10


User-callback calls 1255, time in user-callback 0.01 sec
